(set-info :category "industrial")
(set-info :status sat)
(declare-fun x00 () (_ BitVec 8))
(declare-fun x02 () (_ BitVec 8))
(declare-fun x04 () (_ BitVec 8))
(declare-fun x05 () (_ BitVec 8))
(declare-fun x07 () (_ BitVec 8))
(declare-fun x11 () (_ BitVec 8))
(declare-fun x14 () (_ BitVec 8))
(declare-fun x15 () (_ BitVec 8))
(declare-fun x16 () (_ BitVec 8))
(declare-fun x20 () (_ BitVec 8))
(declare-fun x21 () (_ BitVec 8))
(declare-fun x24 () (_ BitVec 8))
(declare-fun x26 () (_ BitVec 8))
(declare-fun x27 () (_ BitVec 8))
(declare-fun x28 () (_ BitVec 8))
(declare-fun x31 () (_ BitVec 8))
(declare-fun x32 () (_ BitVec 8))
(declare-fun x34 () (_ BitVec 8))
(declare-fun x38 () (_ BitVec 8))
(declare-fun x41 () (_ BitVec 8))
(declare-fun x43 () (_ BitVec 8))
(declare-fun x44 () (_ BitVec 8))
(declare-fun x46 () (_ BitVec 8))
(declare-fun x47 () (_ BitVec 8))
(declare-fun x48 () (_ BitVec 8))
(declare-fun x50 () (_ BitVec 8))
(declare-fun x52 () (_ BitVec 8))
(declare-fun x53 () (_ BitVec 8))
(declare-fun x54 () (_ BitVec 8))
(declare-fun x55 () (_ BitVec 8))
(declare-fun x57 () (_ BitVec 8))
(declare-fun x58 () (_ BitVec 8))
(declare-fun x60 () (_ BitVec 8))
(declare-fun x63 () (_ BitVec 8))
(declare-fun x66 () (_ BitVec 8))
(declare-fun x67 () (_ BitVec 8))
(declare-fun x70 () (_ BitVec 8))
(declare-fun x72 () (_ BitVec 8))
(declare-fun x74 () (_ BitVec 8))
(declare-fun x75 () (_ BitVec 8))
(declare-fun x76 () (_ BitVec 8))
(declare-fun x78 () (_ BitVec 8))
(declare-fun x81 () (_ BitVec 8))
(declare-fun x83 () (_ BitVec 8))
(declare-fun x84 () (_ BitVec 8))
(declare-fun x86 () (_ BitVec 8))
(declare-fun x87 () (_ BitVec 8))
(assert (bvult x00 (_ bv9 8)))
(assert (bvult x02 (_ bv9 8)))
(assert (bvult x04 (_ bv9 8)))
(assert (bvult x05 (_ bv9 8)))
(assert (bvult x07 (_ bv9 8)))
(assert (bvult x11 (_ bv9 8)))
(assert (bvult x14 (_ bv9 8)))
(assert (bvult x15 (_ bv9 8)))
(assert (bvult x16 (_ bv9 8)))
(assert (bvult x20 (_ bv9 8)))
(assert (bvult x21 (_ bv9 8)))
(assert (bvult x24 (_ bv9 8)))
(assert (bvult x26 (_ bv9 8)))
(assert (bvult x27 (_ bv9 8)))
(assert (bvult x28 (_ bv9 8)))
(assert (bvult x31 (_ bv9 8)))
(assert (bvult x32 (_ bv9 8)))
(assert (bvult x34 (_ bv9 8)))
(assert (bvult x38 (_ bv9 8)))
(assert (bvult x41 (_ bv9 8)))
(assert (bvult x43 (_ bv9 8)))
(assert (bvult x44 (_ bv9 8)))
(assert (bvult x46 (_ bv9 8)))
(assert (bvult x47 (_ bv9 8)))
(assert (bvult x48 (_ bv9 8)))
(assert (bvult x50 (_ bv9 8)))
(assert (bvult x52 (_ bv9 8)))
(assert (bvult x53 (_ bv9 8)))
(assert (bvult x54 (_ bv9 8)))
(assert (bvult x55 (_ bv9 8)))
(assert (bvult x57 (_ bv9 8)))
(assert (bvult x58 (_ bv9 8)))
(assert (bvult x60 (_ bv9 8)))
(assert (bvult x63 (_ bv9 8)))
(assert (bvult x66 (_ bv9 8)))
(assert (bvult x67 (_ bv9 8)))
(assert (bvult x70 (_ bv9 8)))
(assert (bvult x72 (_ bv9 8)))
(assert (bvult x74 (_ bv9 8)))
(assert (bvult x75 (_ bv9 8)))
(assert (bvult x76 (_ bv9 8)))
(assert (bvult x78 (_ bv9 8)))
(assert (bvult x81 (_ bv9 8)))
(assert (bvult x83 (_ bv9 8)))
(assert (bvult x84 (_ bv9 8)))
(assert (bvult x86 (_ bv9 8)))
(assert (bvult x87 (_ bv9 8)))
(assert (not (= x00 (_ bv4 8))))
(assert (not (= x00 x02)))
(assert (not (= x00 (_ bv1 8))))
(assert (not (= x00 x04)))
(assert (not (= x00 x05)))
(assert (not (= x00 (_ bv2 8))))
(assert (not (= x00 x07)))
(assert (not (= x00 (_ bv9 8))))
(assert (not (= (_ bv4 8) x02)))
(assert (not (= (_ bv4 8) (_ bv1 8))))
(assert (not (= (_ bv4 8) x04)))
(assert (not (= (_ bv4 8) x05)))
(assert (not (= (_ bv4 8) (_ bv2 8))))
(assert (not (= (_ bv4 8) x07)))
(assert (not (= (_ bv4 8) (_ bv9 8))))
(assert (not (= x02 (_ bv1 8))))
(assert (not (= x02 x04)))
(assert (not (= x02 x05)))
(assert (not (= x02 (_ bv2 8))))
(assert (not (= x02 x07)))
(assert (not (= x02 (_ bv9 8))))
(assert (not (= (_ bv1 8) x04)))
(assert (not (= (_ bv1 8) x05)))
(assert (not (= (_ bv1 8) (_ bv2 8))))
(assert (not (= (_ bv1 8) x07)))
(assert (not (= (_ bv1 8) (_ bv9 8))))
(assert (not (= x04 x05)))
(assert (not (= x04 (_ bv2 8))))
(assert (not (= x04 x07)))
(assert (not (= x04 (_ bv9 8))))
(assert (not (= x05 (_ bv2 8))))
(assert (not (= x05 x07)))
(assert (not (= x05 (_ bv9 8))))
(assert (not (= (_ bv2 8) x07)))
(assert (not (= (_ bv2 8) (_ bv9 8))))
(assert (not (= x07 (_ bv9 8))))
(assert (not (= (_ bv8 8) x11)))
(assert (not (= (_ bv8 8) (_ bv6 8))))
(assert (not (= (_ bv8 8) (_ bv3 8))))
(assert (not (= (_ bv8 8) x14)))
(assert (not (= (_ bv8 8) x15)))
(assert (not (= (_ bv8 8) x16)))
(assert (not (= (_ bv8 8) (_ bv7 8))))
(assert (not (= (_ bv8 8) (_ bv1 8))))
(assert (not (= x11 (_ bv6 8))))
(assert (not (= x11 (_ bv3 8))))
(assert (not (= x11 x14)))
(assert (not (= x11 x15)))
(assert (not (= x11 x16)))
(assert (not (= x11 (_ bv7 8))))
(assert (not (= x11 (_ bv1 8))))
(assert (not (= (_ bv6 8) (_ bv3 8))))
(assert (not (= (_ bv6 8) x14)))
(assert (not (= (_ bv6 8) x15)))
(assert (not (= (_ bv6 8) x16)))
(assert (not (= (_ bv6 8) (_ bv7 8))))
(assert (not (= (_ bv6 8) (_ bv1 8))))
(assert (not (= (_ bv3 8) x14)))
(assert (not (= (_ bv3 8) x15)))
(assert (not (= (_ bv3 8) x16)))
(assert (not (= (_ bv3 8) (_ bv7 8))))
(assert (not (= (_ bv3 8) (_ bv1 8))))
(assert (not (= x14 x15)))
(assert (not (= x14 x16)))
(assert (not (= x14 (_ bv7 8))))
(assert (not (= x14 (_ bv1 8))))
(assert (not (= x15 x16)))
(assert (not (= x15 (_ bv7 8))))
(assert (not (= x15 (_ bv1 8))))
(assert (not (= x16 (_ bv7 8))))
(assert (not (= x16 (_ bv1 8))))
(assert (not (= (_ bv7 8) (_ bv1 8))))
(assert (not (= x20 x21)))
(assert (not (= x20 (_ bv2 8))))
(assert (not (= x20 (_ bv8 8))))
(assert (not (= x20 x24)))
(assert (not (= x20 (_ bv4 8))))
(assert (not (= x20 x26)))
(assert (not (= x20 x27)))
(assert (not (= x20 x28)))
(assert (not (= x21 (_ bv2 8))))
(assert (not (= x21 (_ bv8 8))))
(assert (not (= x21 x24)))
(assert (not (= x21 (_ bv4 8))))
(assert (not (= x21 x26)))
(assert (not (= x21 x27)))
(assert (not (= x21 x28)))
(assert (not (= (_ bv2 8) (_ bv8 8))))
(assert (not (= (_ bv2 8) x24)))
(assert (not (= (_ bv2 8) (_ bv4 8))))
(assert (not (= (_ bv2 8) x26)))
(assert (not (= (_ bv2 8) x27)))
(assert (not (= (_ bv2 8) x28)))
(assert (not (= (_ bv8 8) x24)))
(assert (not (= (_ bv8 8) (_ bv4 8))))
(assert (not (= (_ bv8 8) x26)))
(assert (not (= (_ bv8 8) x27)))
(assert (not (= (_ bv8 8) x28)))
(assert (not (= x24 (_ bv4 8))))
(assert (not (= x24 x26)))
(assert (not (= x24 x27)))
(assert (not (= x24 x28)))
(assert (not (= (_ bv4 8) x26)))
(assert (not (= (_ bv4 8) x27)))
(assert (not (= (_ bv4 8) x28)))
(assert (not (= x26 x27)))
(assert (not (= x26 x28)))
(assert (not (= x27 x28)))
(assert (not (= (_ bv3 8) x31)))
(assert (not (= (_ bv3 8) x32)))
(assert (not (= (_ bv3 8) (_ bv4 8))))
(assert (not (= (_ bv3 8) x34)))
(assert (not (= (_ bv3 8) (_ bv9 8))))
(assert (not (= (_ bv3 8) (_ bv5 8))))
(assert (not (= (_ bv3 8) (_ bv6 8))))
(assert (not (= (_ bv3 8) x38)))
(assert (not (= x31 x32)))
(assert (not (= x31 (_ bv4 8))))
(assert (not (= x31 x34)))
(assert (not (= x31 (_ bv9 8))))
(assert (not (= x31 (_ bv5 8))))
(assert (not (= x31 (_ bv6 8))))
(assert (not (= x31 x38)))
(assert (not (= x32 (_ bv4 8))))
(assert (not (= x32 x34)))
(assert (not (= x32 (_ bv9 8))))
(assert (not (= x32 (_ bv5 8))))
(assert (not (= x32 (_ bv6 8))))
(assert (not (= x32 x38)))
(assert (not (= (_ bv4 8) x34)))
(assert (not (= (_ bv4 8) (_ bv9 8))))
(assert (not (= (_ bv4 8) (_ bv5 8))))
(assert (not (= (_ bv4 8) (_ bv6 8))))
(assert (not (= (_ bv4 8) x38)))
(assert (not (= x34 (_ bv9 8))))
(assert (not (= x34 (_ bv5 8))))
(assert (not (= x34 (_ bv6 8))))
(assert (not (= x34 x38)))
(assert (not (= (_ bv9 8) (_ bv5 8))))
(assert (not (= (_ bv9 8) (_ bv6 8))))
(assert (not (= (_ bv9 8) x38)))
(assert (not (= (_ bv5 8) (_ bv6 8))))
(assert (not (= (_ bv5 8) x38)))
(assert (not (= (_ bv6 8) x38)))
(assert (not (= (_ bv1 8) x41)))
(assert (not (= (_ bv1 8) (_ bv5 8))))
(assert (not (= (_ bv1 8) x43)))
(assert (not (= (_ bv1 8) x44)))
(assert (not (= (_ bv1 8) (_ bv3 8))))
(assert (not (= (_ bv1 8) x46)))
(assert (not (= (_ bv1 8) x47)))
(assert (not (= (_ bv1 8) x48)))
(assert (not (= x41 (_ bv5 8))))
(assert (not (= x41 x43)))
(assert (not (= x41 x44)))
(assert (not (= x41 (_ bv3 8))))
(assert (not (= x41 x46)))
(assert (not (= x41 x47)))
(assert (not (= x41 x48)))
(assert (not (= (_ bv5 8) x43)))
(assert (not (= (_ bv5 8) x44)))
(assert (not (= (_ bv5 8) (_ bv3 8))))
(assert (not (= (_ bv5 8) x46)))
(assert (not (= (_ bv5 8) x47)))
(assert (not (= (_ bv5 8) x48)))
(assert (not (= x43 x44)))
(assert (not (= x43 (_ bv3 8))))
(assert (not (= x43 x46)))
(assert (not (= x43 x47)))
(assert (not (= x43 x48)))
(assert (not (= x44 (_ bv3 8))))
(assert (not (= x44 x46)))
(assert (not (= x44 x47)))
(assert (not (= x44 x48)))
(assert (not (= (_ bv3 8) x46)))
(assert (not (= (_ bv3 8) x47)))
(assert (not (= (_ bv3 8) x48)))
(assert (not (= x46 x47)))
(assert (not (= x46 x48)))
(assert (not (= x47 x48)))
(assert (not (= x50 (_ bv2 8))))
(assert (not (= x50 x52)))
(assert (not (= x50 x53)))
(assert (not (= x50 x54)))
(assert (not (= x50 x55)))
(assert (not (= x50 (_ bv7 8))))
(assert (not (= x50 x57)))
(assert (not (= x50 x58)))
(assert (not (= (_ bv2 8) x52)))
(assert (not (= (_ bv2 8) x53)))
(assert (not (= (_ bv2 8) x54)))
(assert (not (= (_ bv2 8) x55)))
(assert (not (= (_ bv2 8) (_ bv7 8))))
(assert (not (= (_ bv2 8) x57)))
(assert (not (= (_ bv2 8) x58)))
(assert (not (= x52 x53)))
(assert (not (= x52 x54)))
(assert (not (= x52 x55)))
(assert (not (= x52 (_ bv7 8))))
(assert (not (= x52 x57)))
(assert (not (= x52 x58)))
(assert (not (= x53 x54)))
(assert (not (= x53 x55)))
(assert (not (= x53 (_ bv7 8))))
(assert (not (= x53 x57)))
(assert (not (= x53 x58)))
(assert (not (= x54 x55)))
(assert (not (= x54 (_ bv7 8))))
(assert (not (= x54 x57)))
(assert (not (= x54 x58)))
(assert (not (= x55 (_ bv7 8))))
(assert (not (= x55 x57)))
(assert (not (= x55 x58)))
(assert (not (= (_ bv7 8) x57)))
(assert (not (= (_ bv7 8) x58)))
(assert (not (= x57 x58)))
(assert (not (= x60 (_ bv7 8))))
(assert (not (= x60 (_ bv1 8))))
(assert (not (= x60 x63)))
(assert (not (= x60 (_ bv2 8))))
(assert (not (= x60 (_ bv8 8))))
(assert (not (= x60 x66)))
(assert (not (= x60 x67)))
(assert (not (= x60 (_ bv4 8))))
(assert (not (= (_ bv7 8) (_ bv1 8))))
(assert (not (= (_ bv7 8) x63)))
(assert (not (= (_ bv7 8) (_ bv2 8))))
(assert (not (= (_ bv7 8) (_ bv8 8))))
(assert (not (= (_ bv7 8) x66)))
(assert (not (= (_ bv7 8) x67)))
(assert (not (= (_ bv7 8) (_ bv4 8))))
(assert (not (= (_ bv1 8) x63)))
(assert (not (= (_ bv1 8) (_ bv2 8))))
(assert (not (= (_ bv1 8) (_ bv8 8))))
(assert (not (= (_ bv1 8) x66)))
(assert (not (= (_ bv1 8) x67)))
(assert (not (= (_ bv1 8) (_ bv4 8))))
(assert (not (= x63 (_ bv2 8))))
(assert (not (= x63 (_ bv8 8))))
(assert (not (= x63 x66)))
(assert (not (= x63 x67)))
(assert (not (= x63 (_ bv4 8))))
(assert (not (= (_ bv2 8) (_ bv8 8))))
(assert (not (= (_ bv2 8) x66)))
(assert (not (= (_ bv2 8) x67)))
(assert (not (= (_ bv2 8) (_ bv4 8))))
(assert (not (= (_ bv8 8) x66)))
(assert (not (= (_ bv8 8) x67)))
(assert (not (= (_ bv8 8) (_ bv4 8))))
(assert (not (= x66 x67)))
(assert (not (= x66 (_ bv4 8))))
(assert (not (= x67 (_ bv4 8))))
(assert (not (= x70 (_ bv5 8))))
(assert (not (= x70 x72)))
(assert (not (= x70 (_ bv6 8))))
(assert (not (= x70 x74)))
(assert (not (= x70 x75)))
(assert (not (= x70 x76)))
(assert (not (= x70 (_ bv9 8))))
(assert (not (= x70 x78)))
(assert (not (= (_ bv5 8) x72)))
(assert (not (= (_ bv5 8) (_ bv6 8))))
(assert (not (= (_ bv5 8) x74)))
(assert (not (= (_ bv5 8) x75)))
(assert (not (= (_ bv5 8) x76)))
(assert (not (= (_ bv5 8) (_ bv9 8))))
(assert (not (= (_ bv5 8) x78)))
(assert (not (= x72 (_ bv6 8))))
(assert (not (= x72 x74)))
(assert (not (= x72 x75)))
(assert (not (= x72 x76)))
(assert (not (= x72 (_ bv9 8))))
(assert (not (= x72 x78)))
(assert (not (= (_ bv6 8) x74)))
(assert (not (= (_ bv6 8) x75)))
(assert (not (= (_ bv6 8) x76)))
(assert (not (= (_ bv6 8) (_ bv9 8))))
(assert (not (= (_ bv6 8) x78)))
(assert (not (= x74 x75)))
(assert (not (= x74 x76)))
(assert (not (= x74 (_ bv9 8))))
(assert (not (= x74 x78)))
(assert (not (= x75 x76)))
(assert (not (= x75 (_ bv9 8))))
(assert (not (= x75 x78)))
(assert (not (= x76 (_ bv9 8))))
(assert (not (= x76 x78)))
(assert (not (= (_ bv9 8) x78)))
(assert (not (= (_ bv9 8) x81)))
(assert (not (= (_ bv9 8) (_ bv8 8))))
(assert (not (= (_ bv9 8) x83)))
(assert (not (= (_ bv9 8) x84)))
(assert (not (= (_ bv9 8) (_ bv5 8))))
(assert (not (= (_ bv9 8) x86)))
(assert (not (= (_ bv9 8) x87)))
(assert (not (= (_ bv9 8) (_ bv6 8))))
(assert (not (= x81 (_ bv8 8))))
(assert (not (= x81 x83)))
(assert (not (= x81 x84)))
(assert (not (= x81 (_ bv5 8))))
(assert (not (= x81 x86)))
(assert (not (= x81 x87)))
(assert (not (= x81 (_ bv6 8))))
(assert (not (= (_ bv8 8) x83)))
(assert (not (= (_ bv8 8) x84)))
(assert (not (= (_ bv8 8) (_ bv5 8))))
(assert (not (= (_ bv8 8) x86)))
(assert (not (= (_ bv8 8) x87)))
(assert (not (= (_ bv8 8) (_ bv6 8))))
(assert (not (= x83 x84)))
(assert (not (= x83 (_ bv5 8))))
(assert (not (= x83 x86)))
(assert (not (= x83 x87)))
(assert (not (= x83 (_ bv6 8))))
(assert (not (= x84 (_ bv5 8))))
(assert (not (= x84 x86)))
(assert (not (= x84 x87)))
(assert (not (= x84 (_ bv6 8))))
(assert (not (= (_ bv5 8) x86)))
(assert (not (= (_ bv5 8) x87)))
(assert (not (= (_ bv5 8) (_ bv6 8))))
(assert (not (= x86 x87)))
(assert (not (= x86 (_ bv6 8))))
(assert (not (= x87 (_ bv6 8))))
(assert (not (= x00 (_ bv8 8))))
(assert (not (= x00 x20)))
(assert (not (= x00 (_ bv3 8))))
(assert (not (= x00 (_ bv1 8))))
(assert (not (= x00 x50)))
(assert (not (= x00 x60)))
(assert (not (= x00 x70)))
(assert (not (= x00 (_ bv9 8))))
(assert (not (= (_ bv8 8) x20)))
(assert (not (= (_ bv8 8) (_ bv3 8))))
(assert (not (= (_ bv8 8) (_ bv1 8))))
(assert (not (= (_ bv8 8) x50)))
(assert (not (= (_ bv8 8) x60)))
(assert (not (= (_ bv8 8) x70)))
(assert (not (= (_ bv8 8) (_ bv9 8))))
(assert (not (= x20 (_ bv3 8))))
(assert (not (= x20 (_ bv1 8))))
(assert (not (= x20 x50)))
(assert (not (= x20 x60)))
(assert (not (= x20 x70)))
(assert (not (= x20 (_ bv9 8))))
(assert (not (= (_ bv3 8) (_ bv1 8))))
(assert (not (= (_ bv3 8) x50)))
(assert (not (= (_ bv3 8) x60)))
(assert (not (= (_ bv3 8) x70)))
(assert (not (= (_ bv3 8) (_ bv9 8))))
(assert (not (= (_ bv1 8) x50)))
(assert (not (= (_ bv1 8) x60)))
(assert (not (= (_ bv1 8) x70)))
(assert (not (= (_ bv1 8) (_ bv9 8))))
(assert (not (= x50 x60)))
(assert (not (= x50 x70)))
(assert (not (= x50 (_ bv9 8))))
(assert (not (= x60 x70)))
(assert (not (= x60 (_ bv9 8))))
(assert (not (= x70 (_ bv9 8))))
(assert (not (= (_ bv4 8) x11)))
(assert (not (= (_ bv4 8) x21)))
(assert (not (= (_ bv4 8) x31)))
(assert (not (= (_ bv4 8) x41)))
(assert (not (= (_ bv4 8) (_ bv2 8))))
(assert (not (= (_ bv4 8) (_ bv7 8))))
(assert (not (= (_ bv4 8) (_ bv5 8))))
(assert (not (= (_ bv4 8) x81)))
(assert (not (= x11 x21)))
(assert (not (= x11 x31)))
(assert (not (= x11 x41)))
(assert (not (= x11 (_ bv2 8))))
(assert (not (= x11 (_ bv7 8))))
(assert (not (= x11 (_ bv5 8))))
(assert (not (= x11 x81)))
(assert (not (= x21 x31)))
(assert (not (= x21 x41)))
(assert (not (= x21 (_ bv2 8))))
(assert (not (= x21 (_ bv7 8))))
(assert (not (= x21 (_ bv5 8))))
(assert (not (= x21 x81)))
(assert (not (= x31 x41)))
(assert (not (= x31 (_ bv2 8))))
(assert (not (= x31 (_ bv7 8))))
(assert (not (= x31 (_ bv5 8))))
(assert (not (= x31 x81)))
(assert (not (= x41 (_ bv2 8))))
(assert (not (= x41 (_ bv7 8))))
(assert (not (= x41 (_ bv5 8))))
(assert (not (= x41 x81)))
(assert (not (= (_ bv2 8) (_ bv7 8))))
(assert (not (= (_ bv2 8) (_ bv5 8))))
(assert (not (= (_ bv2 8) x81)))
(assert (not (= (_ bv7 8) (_ bv5 8))))
(assert (not (= (_ bv7 8) x81)))
(assert (not (= (_ bv5 8) x81)))
(assert (not (= x02 (_ bv6 8))))
(assert (not (= x02 (_ bv2 8))))
(assert (not (= x02 x32)))
(assert (not (= x02 (_ bv5 8))))
(assert (not (= x02 x52)))
(assert (not (= x02 (_ bv1 8))))
(assert (not (= x02 x72)))
(assert (not (= x02 (_ bv8 8))))
(assert (not (= (_ bv6 8) (_ bv2 8))))
(assert (not (= (_ bv6 8) x32)))
(assert (not (= (_ bv6 8) (_ bv5 8))))
(assert (not (= (_ bv6 8) x52)))
(assert (not (= (_ bv6 8) (_ bv1 8))))
(assert (not (= (_ bv6 8) x72)))
(assert (not (= (_ bv6 8) (_ bv8 8))))
(assert (not (= (_ bv2 8) x32)))
(assert (not (= (_ bv2 8) (_ bv5 8))))
(assert (not (= (_ bv2 8) x52)))
(assert (not (= (_ bv2 8) (_ bv1 8))))
(assert (not (= (_ bv2 8) x72)))
(assert (not (= (_ bv2 8) (_ bv8 8))))
(assert (not (= x32 (_ bv5 8))))
(assert (not (= x32 x52)))
(assert (not (= x32 (_ bv1 8))))
(assert (not (= x32 x72)))
(assert (not (= x32 (_ bv8 8))))
(assert (not (= (_ bv5 8) x52)))
(assert (not (= (_ bv5 8) (_ bv1 8))))
(assert (not (= (_ bv5 8) x72)))
(assert (not (= (_ bv5 8) (_ bv8 8))))
(assert (not (= x52 (_ bv1 8))))
(assert (not (= x52 x72)))
(assert (not (= x52 (_ bv8 8))))
(assert (not (= (_ bv1 8) x72)))
(assert (not (= (_ bv1 8) (_ bv8 8))))
(assert (not (= x72 (_ bv8 8))))
(assert (not (= (_ bv1 8) (_ bv3 8))))
(assert (not (= (_ bv1 8) (_ bv8 8))))
(assert (not (= (_ bv1 8) (_ bv4 8))))
(assert (not (= (_ bv1 8) x43)))
(assert (not (= (_ bv1 8) x53)))
(assert (not (= (_ bv1 8) x63)))
(assert (not (= (_ bv1 8) (_ bv6 8))))
(assert (not (= (_ bv1 8) x83)))
(assert (not (= (_ bv3 8) (_ bv8 8))))
(assert (not (= (_ bv3 8) (_ bv4 8))))
(assert (not (= (_ bv3 8) x43)))
(assert (not (= (_ bv3 8) x53)))
(assert (not (= (_ bv3 8) x63)))
(assert (not (= (_ bv3 8) (_ bv6 8))))
(assert (not (= (_ bv3 8) x83)))
(assert (not (= (_ bv8 8) (_ bv4 8))))
(assert (not (= (_ bv8 8) x43)))
(assert (not (= (_ bv8 8) x53)))
(assert (not (= (_ bv8 8) x63)))
(assert (not (= (_ bv8 8) (_ bv6 8))))
(assert (not (= (_ bv8 8) x83)))
(assert (not (= (_ bv4 8) x43)))
(assert (not (= (_ bv4 8) x53)))
(assert (not (= (_ bv4 8) x63)))
(assert (not (= (_ bv4 8) (_ bv6 8))))
(assert (not (= (_ bv4 8) x83)))
(assert (not (= x43 x53)))
(assert (not (= x43 x63)))
(assert (not (= x43 (_ bv6 8))))
(assert (not (= x43 x83)))
(assert (not (= x53 x63)))
(assert (not (= x53 (_ bv6 8))))
(assert (not (= x53 x83)))
(assert (not (= x63 (_ bv6 8))))
(assert (not (= x63 x83)))
(assert (not (= (_ bv6 8) x83)))
(assert (not (= x04 x14)))
(assert (not (= x04 x24)))
(assert (not (= x04 x34)))
(assert (not (= x04 x44)))
(assert (not (= x04 x54)))
(assert (not (= x04 (_ bv2 8))))
(assert (not (= x04 x74)))
(assert (not (= x04 x84)))
(assert (not (= x14 x24)))
(assert (not (= x14 x34)))
(assert (not (= x14 x44)))
(assert (not (= x14 x54)))
(assert (not (= x14 (_ bv2 8))))
(assert (not (= x14 x74)))
(assert (not (= x14 x84)))
(assert (not (= x24 x34)))
(assert (not (= x24 x44)))
(assert (not (= x24 x54)))
(assert (not (= x24 (_ bv2 8))))
(assert (not (= x24 x74)))
(assert (not (= x24 x84)))
(assert (not (= x34 x44)))
(assert (not (= x34 x54)))
(assert (not (= x34 (_ bv2 8))))
(assert (not (= x34 x74)))
(assert (not (= x34 x84)))
(assert (not (= x44 x54)))
(assert (not (= x44 (_ bv2 8))))
(assert (not (= x44 x74)))
(assert (not (= x44 x84)))
(assert (not (= x54 (_ bv2 8))))
(assert (not (= x54 x74)))
(assert (not (= x54 x84)))
(assert (not (= (_ bv2 8) x74)))
(assert (not (= (_ bv2 8) x84)))
(assert (not (= x74 x84)))
(assert (not (= x05 x15)))
(assert (not (= x05 (_ bv4 8))))
(assert (not (= x05 (_ bv9 8))))
(assert (not (= x05 (_ bv3 8))))
(assert (not (= x05 x55)))
(assert (not (= x05 (_ bv8 8))))
(assert (not (= x05 x75)))
(assert (not (= x05 (_ bv5 8))))
(assert (not (= x15 (_ bv4 8))))
(assert (not (= x15 (_ bv9 8))))
(assert (not (= x15 (_ bv3 8))))
(assert (not (= x15 x55)))
(assert (not (= x15 (_ bv8 8))))
(assert (not (= x15 x75)))
(assert (not (= x15 (_ bv5 8))))
(assert (not (= (_ bv4 8) (_ bv9 8))))
(assert (not (= (_ bv4 8) (_ bv3 8))))
(assert (not (= (_ bv4 8) x55)))
(assert (not (= (_ bv4 8) (_ bv8 8))))
(assert (not (= (_ bv4 8) x75)))
(assert (not (= (_ bv4 8) (_ bv5 8))))
(assert (not (= (_ bv9 8) (_ bv3 8))))
(assert (not (= (_ bv9 8) x55)))
(assert (not (= (_ bv9 8) (_ bv8 8))))
(assert (not (= (_ bv9 8) x75)))
(assert (not (= (_ bv9 8) (_ bv5 8))))
(assert (not (= (_ bv3 8) x55)))
(assert (not (= (_ bv3 8) (_ bv8 8))))
(assert (not (= (_ bv3 8) x75)))
(assert (not (= (_ bv3 8) (_ bv5 8))))
(assert (not (= x55 (_ bv8 8))))
(assert (not (= x55 x75)))
(assert (not (= x55 (_ bv5 8))))
(assert (not (= (_ bv8 8) x75)))
(assert (not (= (_ bv8 8) (_ bv5 8))))
(assert (not (= x75 (_ bv5 8))))
(assert (not (= (_ bv2 8) x16)))
(assert (not (= (_ bv2 8) x26)))
(assert (not (= (_ bv2 8) (_ bv5 8))))
(assert (not (= (_ bv2 8) x46)))
(assert (not (= (_ bv2 8) (_ bv7 8))))
(assert (not (= (_ bv2 8) x66)))
(assert (not (= (_ bv2 8) x76)))
(assert (not (= (_ bv2 8) x86)))
(assert (not (= x16 x26)))
(assert (not (= x16 (_ bv5 8))))
(assert (not (= x16 x46)))
(assert (not (= x16 (_ bv7 8))))
(assert (not (= x16 x66)))
(assert (not (= x16 x76)))
(assert (not (= x16 x86)))
(assert (not (= x26 (_ bv5 8))))
(assert (not (= x26 x46)))
(assert (not (= x26 (_ bv7 8))))
(assert (not (= x26 x66)))
(assert (not (= x26 x76)))
(assert (not (= x26 x86)))
(assert (not (= (_ bv5 8) x46)))
(assert (not (= (_ bv5 8) (_ bv7 8))))
(assert (not (= (_ bv5 8) x66)))
(assert (not (= (_ bv5 8) x76)))
(assert (not (= (_ bv5 8) x86)))
(assert (not (= x46 (_ bv7 8))))
(assert (not (= x46 x66)))
(assert (not (= x46 x76)))
(assert (not (= x46 x86)))
(assert (not (= (_ bv7 8) x66)))
(assert (not (= (_ bv7 8) x76)))
(assert (not (= (_ bv7 8) x86)))
(assert (not (= x66 x76)))
(assert (not (= x66 x86)))
(assert (not (= x76 x86)))
(assert (not (= x07 (_ bv7 8))))
(assert (not (= x07 x27)))
(assert (not (= x07 (_ bv6 8))))
(assert (not (= x07 x47)))
(assert (not (= x07 x57)))
(assert (not (= x07 x67)))
(assert (not (= x07 (_ bv9 8))))
(assert (not (= x07 x87)))
(assert (not (= (_ bv7 8) x27)))
(assert (not (= (_ bv7 8) (_ bv6 8))))
(assert (not (= (_ bv7 8) x47)))
(assert (not (= (_ bv7 8) x57)))
(assert (not (= (_ bv7 8) x67)))
(assert (not (= (_ bv7 8) (_ bv9 8))))
(assert (not (= (_ bv7 8) x87)))
(assert (not (= x27 (_ bv6 8))))
(assert (not (= x27 x47)))
(assert (not (= x27 x57)))
(assert (not (= x27 x67)))
(assert (not (= x27 (_ bv9 8))))
(assert (not (= x27 x87)))
(assert (not (= (_ bv6 8) x47)))
(assert (not (= (_ bv6 8) x57)))
(assert (not (= (_ bv6 8) x67)))
(assert (not (= (_ bv6 8) (_ bv9 8))))
(assert (not (= (_ bv6 8) x87)))
(assert (not (= x47 x57)))
(assert (not (= x47 x67)))
(assert (not (= x47 (_ bv9 8))))
(assert (not (= x47 x87)))
(assert (not (= x57 x67)))
(assert (not (= x57 (_ bv9 8))))
(assert (not (= x57 x87)))
(assert (not (= x67 (_ bv9 8))))
(assert (not (= x67 x87)))
(assert (not (= (_ bv9 8) x87)))
(assert (not (= (_ bv9 8) (_ bv1 8))))
(assert (not (= (_ bv9 8) x28)))
(assert (not (= (_ bv9 8) x38)))
(assert (not (= (_ bv9 8) x48)))
(assert (not (= (_ bv9 8) x58)))
(assert (not (= (_ bv9 8) (_ bv4 8))))
(assert (not (= (_ bv9 8) x78)))
(assert (not (= (_ bv9 8) (_ bv6 8))))
(assert (not (= (_ bv1 8) x28)))
(assert (not (= (_ bv1 8) x38)))
(assert (not (= (_ bv1 8) x48)))
(assert (not (= (_ bv1 8) x58)))
(assert (not (= (_ bv1 8) (_ bv4 8))))
(assert (not (= (_ bv1 8) x78)))
(assert (not (= (_ bv1 8) (_ bv6 8))))
(assert (not (= x28 x38)))
(assert (not (= x28 x48)))
(assert (not (= x28 x58)))
(assert (not (= x28 (_ bv4 8))))
(assert (not (= x28 x78)))
(assert (not (= x28 (_ bv6 8))))
(assert (not (= x38 x48)))
(assert (not (= x38 x58)))
(assert (not (= x38 (_ bv4 8))))
(assert (not (= x38 x78)))
(assert (not (= x38 (_ bv6 8))))
(assert (not (= x48 x58)))
(assert (not (= x48 (_ bv4 8))))
(assert (not (= x48 x78)))
(assert (not (= x48 (_ bv6 8))))
(assert (not (= x58 (_ bv4 8))))
(assert (not (= x58 x78)))
(assert (not (= x58 (_ bv6 8))))
(assert (not (= (_ bv4 8) x78)))
(assert (not (= (_ bv4 8) (_ bv6 8))))
(assert (not (= x78 (_ bv6 8))))
(assert (not (= x00 (_ bv4 8))))
(assert (not (= x00 x02)))
(assert (not (= x00 (_ bv8 8))))
(assert (not (= x00 x11)))
(assert (not (= x00 (_ bv6 8))))
(assert (not (= x00 x20)))
(assert (not (= x00 x21)))
(assert (not (= x00 (_ bv2 8))))
(assert (not (= (_ bv4 8) x02)))
(assert (not (= (_ bv4 8) (_ bv8 8))))
(assert (not (= (_ bv4 8) x11)))
(assert (not (= (_ bv4 8) (_ bv6 8))))
(assert (not (= (_ bv4 8) x20)))
(assert (not (= (_ bv4 8) x21)))
(assert (not (= (_ bv4 8) (_ bv2 8))))
(assert (not (= x02 (_ bv8 8))))
(assert (not (= x02 x11)))
(assert (not (= x02 (_ bv6 8))))
(assert (not (= x02 x20)))
(assert (not (= x02 x21)))
(assert (not (= x02 (_ bv2 8))))
(assert (not (= (_ bv8 8) x11)))
(assert (not (= (_ bv8 8) (_ bv6 8))))
(assert (not (= (_ bv8 8) x20)))
(assert (not (= (_ bv8 8) x21)))
(assert (not (= (_ bv8 8) (_ bv2 8))))
(assert (not (= x11 (_ bv6 8))))
(assert (not (= x11 x20)))
(assert (not (= x11 x21)))
(assert (not (= x11 (_ bv2 8))))
(assert (not (= (_ bv6 8) x20)))
(assert (not (= (_ bv6 8) x21)))
(assert (not (= (_ bv6 8) (_ bv2 8))))
(assert (not (= x20 x21)))
(assert (not (= x20 (_ bv2 8))))
(assert (not (= x21 (_ bv2 8))))
(assert (not (= (_ bv1 8) x04)))
(assert (not (= (_ bv1 8) x05)))
(assert (not (= (_ bv1 8) (_ bv3 8))))
(assert (not (= (_ bv1 8) x14)))
(assert (not (= (_ bv1 8) x15)))
(assert (not (= (_ bv1 8) (_ bv8 8))))
(assert (not (= (_ bv1 8) x24)))
(assert (not (= (_ bv1 8) (_ bv4 8))))
(assert (not (= x04 x05)))
(assert (not (= x04 (_ bv3 8))))
(assert (not (= x04 x14)))
(assert (not (= x04 x15)))
(assert (not (= x04 (_ bv8 8))))
(assert (not (= x04 x24)))
(assert (not (= x04 (_ bv4 8))))
(assert (not (= x05 (_ bv3 8))))
(assert (not (= x05 x14)))
(assert (not (= x05 x15)))
(assert (not (= x05 (_ bv8 8))))
(assert (not (= x05 x24)))
(assert (not (= x05 (_ bv4 8))))
(assert (not (= (_ bv3 8) x14)))
(assert (not (= (_ bv3 8) x15)))
(assert (not (= (_ bv3 8) (_ bv8 8))))
(assert (not (= (_ bv3 8) x24)))
(assert (not (= (_ bv3 8) (_ bv4 8))))
(assert (not (= x14 x15)))
(assert (not (= x14 (_ bv8 8))))
(assert (not (= x14 x24)))
(assert (not (= x14 (_ bv4 8))))
(assert (not (= x15 (_ bv8 8))))
(assert (not (= x15 x24)))
(assert (not (= x15 (_ bv4 8))))
(assert (not (= (_ bv8 8) x24)))
(assert (not (= (_ bv8 8) (_ bv4 8))))
(assert (not (= x24 (_ bv4 8))))
(assert (not (= (_ bv2 8) x07)))
(assert (not (= (_ bv2 8) (_ bv9 8))))
(assert (not (= (_ bv2 8) x16)))
(assert (not (= (_ bv2 8) (_ bv7 8))))
(assert (not (= (_ bv2 8) (_ bv1 8))))
(assert (not (= (_ bv2 8) x26)))
(assert (not (= (_ bv2 8) x27)))
(assert (not (= (_ bv2 8) x28)))
(assert (not (= x07 (_ bv9 8))))
(assert (not (= x07 x16)))
(assert (not (= x07 (_ bv7 8))))
(assert (not (= x07 (_ bv1 8))))
(assert (not (= x07 x26)))
(assert (not (= x07 x27)))
(assert (not (= x07 x28)))
(assert (not (= (_ bv9 8) x16)))
(assert (not (= (_ bv9 8) (_ bv7 8))))
(assert (not (= (_ bv9 8) (_ bv1 8))))
(assert (not (= (_ bv9 8) x26)))
(assert (not (= (_ bv9 8) x27)))
(assert (not (= (_ bv9 8) x28)))
(assert (not (= x16 (_ bv7 8))))
(assert (not (= x16 (_ bv1 8))))
(assert (not (= x16 x26)))
(assert (not (= x16 x27)))
(assert (not (= x16 x28)))
(assert (not (= (_ bv7 8) (_ bv1 8))))
(assert (not (= (_ bv7 8) x26)))
(assert (not (= (_ bv7 8) x27)))
(assert (not (= (_ bv7 8) x28)))
(assert (not (= (_ bv1 8) x26)))
(assert (not (= (_ bv1 8) x27)))
(assert (not (= (_ bv1 8) x28)))
(assert (not (= x26 x27)))
(assert (not (= x26 x28)))
(assert (not (= x27 x28)))
(assert (not (= (_ bv3 8) x31)))
(assert (not (= (_ bv3 8) x32)))
(assert (not (= (_ bv3 8) (_ bv1 8))))
(assert (not (= (_ bv3 8) x41)))
(assert (not (= (_ bv3 8) (_ bv5 8))))
(assert (not (= (_ bv3 8) x50)))
(assert (not (= (_ bv3 8) (_ bv2 8))))
(assert (not (= (_ bv3 8) x52)))
(assert (not (= x31 x32)))
(assert (not (= x31 (_ bv1 8))))
(assert (not (= x31 x41)))
(assert (not (= x31 (_ bv5 8))))
(assert (not (= x31 x50)))
(assert (not (= x31 (_ bv2 8))))
(assert (not (= x31 x52)))
(assert (not (= x32 (_ bv1 8))))
(assert (not (= x32 x41)))
(assert (not (= x32 (_ bv5 8))))
(assert (not (= x32 x50)))
(assert (not (= x32 (_ bv2 8))))
(assert (not (= x32 x52)))
(assert (not (= (_ bv1 8) x41)))
(assert (not (= (_ bv1 8) (_ bv5 8))))
(assert (not (= (_ bv1 8) x50)))
(assert (not (= (_ bv1 8) (_ bv2 8))))
(assert (not (= (_ bv1 8) x52)))
(assert (not (= x41 (_ bv5 8))))
(assert (not (= x41 x50)))
(assert (not (= x41 (_ bv2 8))))
(assert (not (= x41 x52)))
(assert (not (= (_ bv5 8) x50)))
(assert (not (= (_ bv5 8) (_ bv2 8))))
(assert (not (= (_ bv5 8) x52)))
(assert (not (= x50 (_ bv2 8))))
(assert (not (= x50 x52)))
(assert (not (= (_ bv2 8) x52)))
(assert (not (= (_ bv4 8) x34)))
(assert (not (= (_ bv4 8) (_ bv9 8))))
(assert (not (= (_ bv4 8) x43)))
(assert (not (= (_ bv4 8) x44)))
(assert (not (= (_ bv4 8) (_ bv3 8))))
(assert (not (= (_ bv4 8) x53)))
(assert (not (= (_ bv4 8) x54)))
(assert (not (= (_ bv4 8) x55)))
(assert (not (= x34 (_ bv9 8))))
(assert (not (= x34 x43)))
(assert (not (= x34 x44)))
(assert (not (= x34 (_ bv3 8))))
(assert (not (= x34 x53)))
(assert (not (= x34 x54)))
(assert (not (= x34 x55)))
(assert (not (= (_ bv9 8) x43)))
(assert (not (= (_ bv9 8) x44)))
(assert (not (= (_ bv9 8) (_ bv3 8))))
(assert (not (= (_ bv9 8) x53)))
(assert (not (= (_ bv9 8) x54)))
(assert (not (= (_ bv9 8) x55)))
(assert (not (= x43 x44)))
(assert (not (= x43 (_ bv3 8))))
(assert (not (= x43 x53)))
(assert (not (= x43 x54)))
(assert (not (= x43 x55)))
(assert (not (= x44 (_ bv3 8))))
(assert (not (= x44 x53)))
(assert (not (= x44 x54)))
(assert (not (= x44 x55)))
(assert (not (= (_ bv3 8) x53)))
(assert (not (= (_ bv3 8) x54)))
(assert (not (= (_ bv3 8) x55)))
(assert (not (= x53 x54)))
(assert (not (= x53 x55)))
(assert (not (= x54 x55)))
(assert (not (= (_ bv5 8) (_ bv6 8))))
(assert (not (= (_ bv5 8) x38)))
(assert (not (= (_ bv5 8) x46)))
(assert (not (= (_ bv5 8) x47)))
(assert (not (= (_ bv5 8) x48)))
(assert (not (= (_ bv5 8) (_ bv7 8))))
(assert (not (= (_ bv5 8) x57)))
(assert (not (= (_ bv5 8) x58)))
(assert (not (= (_ bv6 8) x38)))
(assert (not (= (_ bv6 8) x46)))
(assert (not (= (_ bv6 8) x47)))
(assert (not (= (_ bv6 8) x48)))
(assert (not (= (_ bv6 8) (_ bv7 8))))
(assert (not (= (_ bv6 8) x57)))
(assert (not (= (_ bv6 8) x58)))
(assert (not (= x38 x46)))
(assert (not (= x38 x47)))
(assert (not (= x38 x48)))
(assert (not (= x38 (_ bv7 8))))
(assert (not (= x38 x57)))
(assert (not (= x38 x58)))
(assert (not (= x46 x47)))
(assert (not (= x46 x48)))
(assert (not (= x46 (_ bv7 8))))
(assert (not (= x46 x57)))
(assert (not (= x46 x58)))
(assert (not (= x47 x48)))
(assert (not (= x47 (_ bv7 8))))
(assert (not (= x47 x57)))
(assert (not (= x47 x58)))
(assert (not (= x48 (_ bv7 8))))
(assert (not (= x48 x57)))
(assert (not (= x48 x58)))
(assert (not (= (_ bv7 8) x57)))
(assert (not (= (_ bv7 8) x58)))
(assert (not (= x57 x58)))
(assert (not (= x60 (_ bv7 8))))
(assert (not (= x60 (_ bv1 8))))
(assert (not (= x60 x70)))
(assert (not (= x60 (_ bv5 8))))
(assert (not (= x60 x72)))
(assert (not (= x60 (_ bv9 8))))
(assert (not (= x60 x81)))
(assert (not (= x60 (_ bv8 8))))
(assert (not (= (_ bv7 8) (_ bv1 8))))
(assert (not (= (_ bv7 8) x70)))
(assert (not (= (_ bv7 8) (_ bv5 8))))
(assert (not (= (_ bv7 8) x72)))
(assert (not (= (_ bv7 8) (_ bv9 8))))
(assert (not (= (_ bv7 8) x81)))
(assert (not (= (_ bv7 8) (_ bv8 8))))
(assert (not (= (_ bv1 8) x70)))
(assert (not (= (_ bv1 8) (_ bv5 8))))
(assert (not (= (_ bv1 8) x72)))
(assert (not (= (_ bv1 8) (_ bv9 8))))
(assert (not (= (_ bv1 8) x81)))
(assert (not (= (_ bv1 8) (_ bv8 8))))
(assert (not (= x70 (_ bv5 8))))
(assert (not (= x70 x72)))
(assert (not (= x70 (_ bv9 8))))
(assert (not (= x70 x81)))
(assert (not (= x70 (_ bv8 8))))
(assert (not (= (_ bv5 8) x72)))
(assert (not (= (_ bv5 8) (_ bv9 8))))
(assert (not (= (_ bv5 8) x81)))
(assert (not (= (_ bv5 8) (_ bv8 8))))
(assert (not (= x72 (_ bv9 8))))
(assert (not (= x72 x81)))
(assert (not (= x72 (_ bv8 8))))
(assert (not (= (_ bv9 8) x81)))
(assert (not (= (_ bv9 8) (_ bv8 8))))
(assert (not (= x81 (_ bv8 8))))
(assert (not (= x63 (_ bv2 8))))
(assert (not (= x63 (_ bv8 8))))
(assert (not (= x63 (_ bv6 8))))
(assert (not (= x63 x74)))
(assert (not (= x63 x75)))
(assert (not (= x63 x83)))
(assert (not (= x63 x84)))
(assert (not (= x63 (_ bv5 8))))
(assert (not (= (_ bv2 8) (_ bv8 8))))
(assert (not (= (_ bv2 8) (_ bv6 8))))
(assert (not (= (_ bv2 8) x74)))
(assert (not (= (_ bv2 8) x75)))
(assert (not (= (_ bv2 8) x83)))
(assert (not (= (_ bv2 8) x84)))
(assert (not (= (_ bv2 8) (_ bv5 8))))
(assert (not (= (_ bv8 8) (_ bv6 8))))
(assert (not (= (_ bv8 8) x74)))
(assert (not (= (_ bv8 8) x75)))
(assert (not (= (_ bv8 8) x83)))
(assert (not (= (_ bv8 8) x84)))
(assert (not (= (_ bv8 8) (_ bv5 8))))
(assert (not (= (_ bv6 8) x74)))
(assert (not (= (_ bv6 8) x75)))
(assert (not (= (_ bv6 8) x83)))
(assert (not (= (_ bv6 8) x84)))
(assert (not (= (_ bv6 8) (_ bv5 8))))
(assert (not (= x74 x75)))
(assert (not (= x74 x83)))
(assert (not (= x74 x84)))
(assert (not (= x74 (_ bv5 8))))
(assert (not (= x75 x83)))
(assert (not (= x75 x84)))
(assert (not (= x75 (_ bv5 8))))
(assert (not (= x83 x84)))
(assert (not (= x83 (_ bv5 8))))
(assert (not (= x84 (_ bv5 8))))
(assert (not (= x66 x67)))
(assert (not (= x66 (_ bv4 8))))
(assert (not (= x66 x76)))
(assert (not (= x66 (_ bv9 8))))
(assert (not (= x66 x78)))
(assert (not (= x66 x86)))
(assert (not (= x66 x87)))
(assert (not (= x66 (_ bv6 8))))
(assert (not (= x67 (_ bv4 8))))
(assert (not (= x67 x76)))
(assert (not (= x67 (_ bv9 8))))
(assert (not (= x67 x78)))
(assert (not (= x67 x86)))
(assert (not (= x67 x87)))
(assert (not (= x67 (_ bv6 8))))
(assert (not (= (_ bv4 8) x76)))
(assert (not (= (_ bv4 8) (_ bv9 8))))
(assert (not (= (_ bv4 8) x78)))
(assert (not (= (_ bv4 8) x86)))
(assert (not (= (_ bv4 8) x87)))
(assert (not (= (_ bv4 8) (_ bv6 8))))
(assert (not (= x76 (_ bv9 8))))
(assert (not (= x76 x78)))
(assert (not (= x76 x86)))
(assert (not (= x76 x87)))
(assert (not (= x76 (_ bv6 8))))
(assert (not (= (_ bv9 8) x78)))
(assert (not (= (_ bv9 8) x86)))
(assert (not (= (_ bv9 8) x87)))
(assert (not (= (_ bv9 8) (_ bv6 8))))
(assert (not (= x78 x86)))
(assert (not (= x78 x87)))
(assert (not (= x78 (_ bv6 8))))
(assert (not (= x86 x87)))
(assert (not (= x86 (_ bv6 8))))
(assert (not (= x87 (_ bv6 8))))
(check-sat)
(exit)
